73890868062938584975015,3,1,2,010,1,1,2,011,12,1,2,013,1,1,2,07,5,1,2,012,11,1,2,09,10,1,2,01,3,1,2,014,7,1,2,07,4,1,2,010,2,1,2,09,3,1,2,04,12,1,2,07,10,1,2,06,14,1,2,011,2,1,2,03,3,1,2,012,11,1,2,09,7,1,2,02,5,1,2,04,9,1,2,09,10,1,2,012,10,1,2,06,14,1,2,014,11,1,2,01,11,1,2,01,14,1,2,06,6,1,2,015,2,1,2,015,15,1,2,02,14,1,2,013,9,1,2,06,5,1,2,07,15,1,2,014,7,1,2,06,2,1,2,010,7,1,2,013,4,1,2,014,11,1,2,015,7,1,2,013,9,1,2,06,2,1,2,05,15,1,2,02,4,1,2,05,12,1,2,015,3,1,2,013,10,1,2,08,13,1,2,014,7,1,2,02,13,1,2,0